; SWAP1 NOT POP SWAP2 SWAP1 => SWAP3 SWAP2 SWAP1 POP
(set-option :produce-proofs true)
; 
(set-info :status unknown)
(declare-fun storage_t ((_ BitVec 256) (_ BitVec 256) (_ BitVec 256) (_ BitVec 256) Int (_ BitVec 256)) (_ BitVec 256))
(declare-fun storage_s ((_ BitVec 256) (_ BitVec 256) (_ BitVec 256) (_ BitVec 256) Int (_ BitVec 256)) (_ BitVec 256))
(declare-fun exc_halt_t (Int) Bool)
(declare-fun exc_halt_s (Int) Bool)
(declare-fun sc_t (Int) (_ BitVec 6))
(declare-fun stack_t ((_ BitVec 256) (_ BitVec 256) (_ BitVec 256) (_ BitVec 256) Int (_ BitVec 6)) (_ BitVec 256))
(declare-fun stack_s ((_ BitVec 256) (_ BitVec 256) (_ BitVec 256) (_ BitVec 256) Int (_ BitVec 6)) (_ BitVec 256))
(declare-fun sc_s (Int) (_ BitVec 6))
(declare-fun used_gas_t ((_ BitVec 256) (_ BitVec 256) (_ BitVec 256) (_ BitVec 256) Int) Int)
(declare-fun used_gas_s ((_ BitVec 256) (_ BitVec 256) (_ BitVec 256) (_ BitVec 256) Int) Int)
(assert
 (exists ((x_0 (_ BitVec 256)) (x_1 (_ BitVec 256)) (x_2 (_ BitVec 256)) (x_3 (_ BitVec 256)) )(let (($x8601 (forall ((w (_ BitVec 256)) )(let ((?x9131 (storage_t x_0 x_1 x_2 x_3 4 w)))
 (let ((?x5828 (storage_s x_0 x_1 x_2 x_3 5 w)))
 (= ?x5828 ?x9131))))
 ))
 (let (($x3723 (exc_halt_t 4)))
 (let (($x3979 (exc_halt_s 5)))
 (let (($x7567 (= $x3979 $x3723)))
 (let (($x11754 (forall ((n (_ BitVec 6)) )(let ((?x3757 (sc_t 4)))
 (let (($x9850 (bvsle ?x3757 n)))
 (let ((?x8900 (stack_t x_0 x_1 x_2 x_3 4 n)))
 (let ((?x7318 (stack_s x_0 x_1 x_2 x_3 5 n)))
 (let (($x5313 (= ?x7318 ?x8900)))
 (or $x5313 $x9850)))))))
 ))
 (let ((?x3757 (sc_t 4)))
 (let ((?x805 (sc_s 5)))
 (let (($x9143 (= ?x805 ?x3757)))
 (let ((?x6644 (used_gas_t x_0 x_1 x_2 x_3 0)))
 (let ((?x905 (used_gas_s x_0 x_1 x_2 x_3 0)))
 (let (($x7473 (= ?x905 ?x6644)))
 (let (($x5773 (forall ((w (_ BitVec 256)) )(let ((?x119 (storage_t x_0 x_1 x_2 x_3 0 w)))
 (let ((?x9707 (storage_s x_0 x_1 x_2 x_3 0 w)))
 (= ?x9707 ?x119))))
 ))
 (let (($x56 (exc_halt_t 0)))
 (let (($x57 (exc_halt_s 0)))
 (let (($x58 (= $x57 $x56)))
 (let (($x1782 (forall ((n (_ BitVec 6)) )(let ((?x63 (sc_t 0)))
 (let (($x10077 (bvsle ?x63 n)))
 (let ((?x6964 (stack_t x_0 x_1 x_2 x_3 0 n)))
 (let ((?x8572 (stack_s x_0 x_1 x_2 x_3 0 n)))
 (let (($x282 (= ?x8572 ?x6964)))
 (or $x282 $x10077)))))))
 ))
 (let ((?x63 (sc_t 0)))
 (let ((?x72 (sc_s 0)))
 (let (($x73 (= ?x72 ?x63)))
 (let (($x10208 (= $x3723 (or (exc_halt_t 3) (not (bvsle (_ bv0 6) (bvadd (_ bv63 6) (sc_t 3))))))))
 (let (($x5613 (forall ((w (_ BitVec 256)) )(let ((?x8140 (storage_t x_0 x_1 x_2 x_3 3 w)))
 (let ((?x9131 (storage_t x_0 x_1 x_2 x_3 4 w)))
 (= ?x9131 ?x8140))))
 ))
 (let (($x7405 (forall ((n (_ BitVec 6)) )(let ((?x3193 (stack_t x_0 x_1 x_2 x_3 3 n)))
 (let ((?x8900 (stack_t x_0 x_1 x_2 x_3 4 n)))
 (let ((?x3005 (sc_t 3)))
 (let ((?x4707 (bvadd (_ bv63 6) ?x3005)))
 (let (($x1150 (bvsle ?x4707 n)))
 (or $x1150 (= ?x8900 ?x3193))))))))
 ))
 (let ((?x3005 (sc_t 3)))
 (let ((?x4707 (bvadd (_ bv63 6) ?x3005)))
 (let (($x5938 (= ?x3757 ?x4707)))
 (let ((?x8880 (used_gas_t x_0 x_1 x_2 x_3 4)))
 (let (($x5155 (= ?x8880 (+ 2 (used_gas_t x_0 x_1 x_2 x_3 3)))))
 (let (($x8325 (exc_halt_t 3)))
 (let (($x10178 (= $x8325 (or (exc_halt_t 2) (not (bvsle (_ bv0 6) (bvadd (_ bv62 6) (sc_t 2))))))))
 (let (($x1141 (forall ((w (_ BitVec 256)) )(let ((?x9922 (storage_t x_0 x_1 x_2 x_3 2 w)))
 (let ((?x8140 (storage_t x_0 x_1 x_2 x_3 3 w)))
 (= ?x8140 ?x9922))))
 ))
 (let (($x10388 (forall ((n (_ BitVec 6)) )(let ((?x1212 (stack_t x_0 x_1 x_2 x_3 2 n)))
 (let ((?x3193 (stack_t x_0 x_1 x_2 x_3 3 n)))
 (let ((?x4056 (sc_t 2)))
 (let ((?x5157 (bvadd (_ bv62 6) ?x4056)))
 (let (($x330 (bvsle ?x5157 n)))
 (or $x330 (= ?x3193 ?x1212))))))))
 ))
 (let ((?x4056 (sc_t 2)))
 (let (($x5357 (= ?x3005 ?x4056)))
 (let ((?x2681 (used_gas_t x_0 x_1 x_2 x_3 3)))
 (let (($x8731 (= ?x2681 (+ 3 (used_gas_t x_0 x_1 x_2 x_3 2)))))
 (let ((?x5207 (bvadd (_ bv63 6) ?x4056)))
 (let ((?x2978 (stack_t x_0 x_1 x_2 x_3 2 ?x5207)))
 (let ((?x5157 (bvadd (_ bv62 6) ?x4056)))
 (let ((?x1741 (stack_t x_0 x_1 x_2 x_3 2 ?x5157)))
 (let ((?x7262 (stack_t x_0 x_1 x_2 x_3 3 ?x4707)))
 (let (($x903 (exc_halt_t 2)))
 (let (($x11550 (= $x903 (or (exc_halt_t 1) (not (bvsle (_ bv0 6) (bvadd (_ bv61 6) (sc_t 1))))))))
 (let (($x4571 (forall ((w (_ BitVec 256)) )(let ((?x6752 (storage_t x_0 x_1 x_2 x_3 1 w)))
 (let ((?x9922 (storage_t x_0 x_1 x_2 x_3 2 w)))
 (= ?x9922 ?x6752))))
 ))
 (let (($x3110 (forall ((n (_ BitVec 6)) )(let ((?x10865 (stack_t x_0 x_1 x_2 x_3 1 n)))
 (let ((?x1212 (stack_t x_0 x_1 x_2 x_3 2 n)))
 (let (($x8944 (= ?x1212 ?x10865)))
 (or (bvsle (bvadd (_ bv61 6) (sc_t 1)) n) $x8944)))))
 ))
 (let ((?x4023 (sc_t 1)))
 (let (($x10289 (= ?x4056 ?x4023)))
 (let ((?x9006 (used_gas_t x_0 x_1 x_2 x_3 2)))
 (let (($x2176 (= ?x9006 (+ 3 (used_gas_t x_0 x_1 x_2 x_3 1)))))
 (let ((?x6175 (bvadd (_ bv63 6) ?x4023)))
 (let ((?x1559 (stack_t x_0 x_1 x_2 x_3 1 ?x6175)))
 (let (($x1920 (exc_halt_t 1)))
 (let (($x8783 (= $x1920 (or $x56 (not (bvsle (_ bv0 6) (bvadd (_ bv60 6) ?x63)))))))
 (let (($x10014 (forall ((w (_ BitVec 256)) )(let ((?x119 (storage_t x_0 x_1 x_2 x_3 0 w)))
 (let ((?x6752 (storage_t x_0 x_1 x_2 x_3 1 w)))
 (= ?x6752 ?x119))))
 ))
 (let (($x9872 (forall ((n (_ BitVec 6)) )(let ((?x6964 (stack_t x_0 x_1 x_2 x_3 0 n)))
 (let ((?x10865 (stack_t x_0 x_1 x_2 x_3 1 n)))
 (or (bvsle (bvadd (_ bv60 6) (sc_t 0)) n) (= ?x10865 ?x6964)))))
 ))
 (let (($x6681 (= ?x4023 ?x63)))
 (let ((?x3621 (used_gas_t x_0 x_1 x_2 x_3 1)))
 (let (($x9681 (= ?x3621 (+ 3 ?x6644))))
 (let ((?x8180 (bvadd (_ bv62 6) ?x4023)))
 (let ((?x30 (stack_t x_0 x_1 x_2 x_3 1 ?x8180)))
 (let (($x4911 (= ?x30 (stack_t x_0 x_1 x_2 x_3 0 (bvadd (_ bv62 6) ?x63)))))
 (let ((?x8240 (bvadd (_ bv61 6) ?x4023)))
 (let ((?x2679 (stack_t x_0 x_1 x_2 x_3 1 ?x8240)))
 (let (($x9712 (= ?x2679 (stack_t x_0 x_1 x_2 x_3 0 (bvadd (_ bv61 6) ?x63)))))
 (let (($x7780 (= (stack_t x_0 x_1 x_2 x_3 1 (bvadd (_ bv60 6) ?x4023)) (stack_t x_0 x_1 x_2 x_3 0 (bvadd (_ bv63 6) ?x63)))))
 (let (($x6459 (= ?x1559 (stack_t x_0 x_1 x_2 x_3 0 (bvadd (_ bv60 6) ?x63)))))
 (let (($x385 (= $x3979 (or (exc_halt_s 4) (not (bvsle (_ bv0 6) (bvadd (_ bv62 6) (sc_s 4))))))))
 (let (($x9122 (forall ((w (_ BitVec 256)) )(let ((?x11267 (storage_s x_0 x_1 x_2 x_3 4 w)))
 (let ((?x5828 (storage_s x_0 x_1 x_2 x_3 5 w)))
 (= ?x5828 ?x11267))))
 ))
 (let (($x7521 (forall ((n (_ BitVec 6)) )(let ((?x5397 (stack_s x_0 x_1 x_2 x_3 4 n)))
 (let ((?x7318 (stack_s x_0 x_1 x_2 x_3 5 n)))
 (let (($x8717 (= ?x7318 ?x5397)))
 (let ((?x4305 (sc_s 4)))
 (let ((?x5679 (bvadd (_ bv62 6) ?x4305)))
 (let (($x6848 (bvsle ?x5679 n)))
 (or $x6848 $x8717))))))))
 ))
 (let ((?x4305 (sc_s 4)))
 (let (($x10230 (= ?x805 ?x4305)))
 (let ((?x8925 (used_gas_s x_0 x_1 x_2 x_3 5)))
 (let ((?x11391 (bvadd (_ bv63 6) ?x4305)))
 (let ((?x8851 (stack_s x_0 x_1 x_2 x_3 4 ?x11391)))
 (let ((?x5679 (bvadd (_ bv62 6) ?x4305)))
 (let ((?x9127 (stack_s x_0 x_1 x_2 x_3 4 ?x5679)))
 (let (($x64 (exc_halt_s 4)))
 (let (($x1456 (= $x64 (or (exc_halt_s 3) (not (bvsle (_ bv0 6) (bvadd (_ bv61 6) (sc_s 3))))))))
 (let (($x657 (forall ((w (_ BitVec 256)) )(let ((?x504 (storage_s x_0 x_1 x_2 x_3 3 w)))
 (let ((?x11267 (storage_s x_0 x_1 x_2 x_3 4 w)))
 (= ?x11267 ?x504))))
 ))
 (let (($x11295 (forall ((n (_ BitVec 6)) )(let ((?x5740 (stack_s x_0 x_1 x_2 x_3 3 n)))
 (let ((?x5397 (stack_s x_0 x_1 x_2 x_3 4 n)))
 (let (($x8050 (= ?x5397 ?x5740)))
 (let ((?x275 (sc_s 3)))
 (let ((?x10434 (bvadd (_ bv61 6) ?x275)))
 (let (($x561 (bvsle ?x10434 n)))
 (or $x561 $x8050))))))))
 ))
 (let ((?x275 (sc_s 3)))
 (let (($x7998 (= ?x4305 ?x275)))
 (let ((?x5714 (used_gas_s x_0 x_1 x_2 x_3 4)))
 (let (($x6564 (= ?x5714 (+ 3 (used_gas_s x_0 x_1 x_2 x_3 3)))))
 (let (($x2631 (= ?x9127 (stack_s x_0 x_1 x_2 x_3 3 (bvadd (_ bv62 6) ?x275)))))
 (let ((?x318 (bvadd (_ bv63 6) ?x275)))
 (let ((?x9426 (stack_s x_0 x_1 x_2 x_3 3 ?x318)))
 (let ((?x1549 (bvadd (_ bv61 6) ?x4305)))
 (let ((?x2077 (stack_s x_0 x_1 x_2 x_3 4 ?x1549)))
 (let (($x292 (exc_halt_s 3)))
 (let (($x10045 (= $x292 (or (exc_halt_s 2) (not (bvsle (_ bv0 6) (bvadd (_ bv63 6) (sc_s 2))))))))
 (let (($x4327 (forall ((w (_ BitVec 256)) )(let ((?x9465 (storage_s x_0 x_1 x_2 x_3 2 w)))
 (let ((?x504 (storage_s x_0 x_1 x_2 x_3 3 w)))
 (= ?x504 ?x9465))))
 ))
 (let (($x3635 (forall ((n (_ BitVec 6)) )(let ((?x218 (sc_s 2)))
 (let ((?x1185 (bvadd (_ bv63 6) ?x218)))
 (let (($x7743 (bvsle ?x1185 n)))
 (let ((?x2013 (stack_s x_0 x_1 x_2 x_3 2 n)))
 (let ((?x5740 (stack_s x_0 x_1 x_2 x_3 3 n)))
 (or (= ?x5740 ?x2013) $x7743)))))))
 ))
 (let ((?x218 (sc_s 2)))
 (let ((?x1185 (bvadd (_ bv63 6) ?x218)))
 (let (($x8631 (= ?x275 ?x1185)))
 (let ((?x3359 (used_gas_s x_0 x_1 x_2 x_3 3)))
 (let (($x743 (= ?x3359 (+ 2 (used_gas_s x_0 x_1 x_2 x_3 2)))))
 (let (($x247 (exc_halt_s 2)))
 (let (($x9609 (= $x247 (or (exc_halt_s 1) (not (bvsle (_ bv0 6) (bvadd (_ bv63 6) (sc_s 1))))))))
 (let (($x870 (forall ((w (_ BitVec 256)) )(let ((?x7657 (storage_s x_0 x_1 x_2 x_3 1 w)))
 (let ((?x9465 (storage_s x_0 x_1 x_2 x_3 2 w)))
 (= ?x9465 ?x7657))))
 ))
 (let (($x1928 (forall ((n (_ BitVec 6)) )(let ((?x154 (sc_s 1)))
 (let ((?x917 (bvadd (_ bv63 6) ?x154)))
 (let (($x6822 (bvsle ?x917 n)))
 (let ((?x5793 (stack_s x_0 x_1 x_2 x_3 1 n)))
 (let ((?x2013 (stack_s x_0 x_1 x_2 x_3 2 n)))
 (let (($x3796 (= ?x2013 ?x5793)))
 (or $x3796 $x6822))))))))
 ))
 (let ((?x154 (sc_s 1)))
 (let (($x10550 (= ?x218 ?x154)))
 (let ((?x7503 (used_gas_s x_0 x_1 x_2 x_3 2)))
 (let (($x5860 (= ?x7503 (+ 3 (used_gas_s x_0 x_1 x_2 x_3 1)))))
 (let ((?x5904 (stack_s x_0 x_1 x_2 x_3 2 ?x1185)))
 (let (($x6958 (= ?x5904 (bvnot (stack_s x_0 x_1 x_2 x_3 1 (bvadd (_ bv63 6) ?x154))))))
 (let (($x189 (exc_halt_s 1)))
 (let (($x3939 (= $x189 (or $x57 (not (bvsle (_ bv0 6) (bvadd (_ bv62 6) ?x72)))))))
 (let (($x6704 (forall ((w (_ BitVec 256)) )(let ((?x9707 (storage_s x_0 x_1 x_2 x_3 0 w)))
 (let ((?x7657 (storage_s x_0 x_1 x_2 x_3 1 w)))
 (= ?x7657 ?x9707))))
 ))
 (let (($x7963 (forall ((n (_ BitVec 6)) )(let ((?x72 (sc_s 0)))
 (let ((?x3868 (bvadd (_ bv62 6) ?x72)))
 (let (($x11328 (bvsle ?x3868 n)))
 (let ((?x8572 (stack_s x_0 x_1 x_2 x_3 0 n)))
 (let ((?x5793 (stack_s x_0 x_1 x_2 x_3 1 n)))
 (let (($x5560 (= ?x5793 ?x8572)))
 (or $x5560 $x11328))))))))
 ))
 (let (($x601 (= ?x154 ?x72)))
 (let ((?x7757 (used_gas_s x_0 x_1 x_2 x_3 1)))
 (let (($x9219 (= ?x7757 (+ 3 ?x905))))
 (let ((?x11623 (bvadd (_ bv63 6) ?x72)))
 (let ((?x906 (stack_s x_0 x_1 x_2 x_3 0 ?x11623)))
 (let ((?x4164 (bvadd (_ bv62 6) ?x154)))
 (let ((?x2820 (stack_s x_0 x_1 x_2 x_3 1 ?x4164)))
 (let ((?x917 (bvadd (_ bv63 6) ?x154)))
 (let ((?x2244 (stack_s x_0 x_1 x_2 x_3 1 ?x917)))
 (let (($x3722 (forall ((w (_ BitVec 256)) )(let ((?x9707 (storage_s x_0 x_1 x_2 x_3 0 w)))
 (= ?x9707 (_ bv0 256))))
 ))
 (let (($x6026 (= ?x905 0)))
 (let (($x1898 (not $x57)))
 (let (($x10667 (= (stack_s x_0 x_1 x_2 x_3 0 (_ bv3 6)) x_3)))
 (let (($x8904 (= (stack_s x_0 x_1 x_2 x_3 0 (_ bv2 6)) x_2)))
 (let (($x3369 (= (stack_s x_0 x_1 x_2 x_3 0 (_ bv1 6)) x_1)))
 (let (($x4140 (= (stack_s x_0 x_1 x_2 x_3 0 (_ bv0 6)) x_0)))
 (let (($x5868 (= ?x72 (_ bv4 6))))
 (and $x5868 $x4140 $x3369 $x8904 $x10667 $x1898 $x6026 $x3722 (= ?x2244 (stack_s x_0 x_1 x_2 x_3 0 (bvadd (_ bv62 6) ?x72))) (= ?x2820 ?x906) $x9219 $x601 $x7963 $x6704 $x3939 $x6958 $x5860 $x10550 $x1928 $x870 $x9609 $x743 $x8631 $x3635 $x4327 $x10045 (= ?x8851 (stack_s x_0 x_1 x_2 x_3 3 (bvadd (_ bv61 6) ?x275))) (= ?x2077 ?x9426) $x2631 $x6564 $x7998 $x11295 $x657 $x1456 (= (stack_s x_0 x_1 x_2 x_3 5 (bvadd (_ bv63 6) ?x805)) ?x9127) (= (stack_s x_0 x_1 x_2 x_3 5 (bvadd (_ bv62 6) ?x805)) ?x8851) (= ?x8925 (+ 3 ?x5714)) $x10230 $x7521 $x9122 $x385 $x6459 $x7780 $x9712 $x4911 $x9681 $x6681 $x9872 $x10014 $x8783 (= ?x2978 ?x2679) (= (stack_t x_0 x_1 x_2 x_3 2 (bvadd (_ bv61 6) ?x4056)) ?x1559) (= ?x1741 ?x30) $x2176 $x10289 $x3110 $x4571 $x11550 (= ?x7262 ?x1741) (= (stack_t x_0 x_1 x_2 x_3 3 (bvadd (_ bv62 6) ?x3005)) ?x2978) $x8731 $x5357 $x10388 $x1141 $x10178 $x5155 $x5938 $x7405 $x5613 $x10208 $x73 $x1782 $x58 $x5773 $x7473 (not (and $x9143 $x11754 $x7567 $x8601))))))))))))))))))))))))))))))))))))))))))))))))))))))))))))))))))))))))))))))))))))))))))))))))))))))))))))))))))))))))))))))))))))
 )
(check-sat)
(get-proof)
